solution status: optimal solution found
objective value:                     187271.005285427
d11(0,0)                                            1 	(obj:0)
d11(1,1)                                            1 	(obj:0)
d11(2,3)                                            1 	(obj:0)
d11(2,4)                                            1 	(obj:0)
d11(2,5)                                            1 	(obj:0)
d11(2,6)                                            1 	(obj:0)
d11(3,7)                                            1 	(obj:0)
d11(3,9)                                            1 	(obj:0)
d11(3,10)                                           1 	(obj:0)
d11(3,11)                                           1 	(obj:0)
d11(3,12)                                           1 	(obj:0)
d11(3,13)                                           1 	(obj:0)
d11(3,14)                                           1 	(obj:0)
d11(5,31)                           0.999999999999985 	(obj:0)
d11(5,39)                           0.999999999999985 	(obj:0)
d11(5,41)                           0.999999999999985 	(obj:0)
d11(5,43)                                           1 	(obj:0)
d11(5,45)                           0.999999999999985 	(obj:0)
d11(5,47)                           0.999999999999985 	(obj:0)
d11(5,49)                           0.999999999999985 	(obj:0)
d11(5,51)                                           1 	(obj:0)
d11(5,53)                           0.999999999999985 	(obj:0)
d11(5,55)                           0.999999999999985 	(obj:0)
d11(5,57)                           0.999999999999985 	(obj:0)
d11(5,59)                           0.999999999999985 	(obj:0)
d11(5,61)                           0.999999999999985 	(obj:0)
d12(4,16)                                           1 	(obj:0)
d12(4,18)                                           1 	(obj:0)
d12(4,20)                                           1 	(obj:0)
d12(4,22)                                           1 	(obj:0)
d12(4,24)                                           1 	(obj:0)
d12(4,26)                                           1 	(obj:0)
d12(4,28)                                           1 	(obj:0)
d12(4,30)                                           1 	(obj:0)
d12(5,32)                                           1 	(obj:0)
d12(5,34)                                           1 	(obj:0)
d12(5,36)                                           1 	(obj:0)
d12(5,38)                                           1 	(obj:0)
d12(5,40)                                           1 	(obj:0)
d12(5,42)                                           1 	(obj:0)
d12(5,44)                                           1 	(obj:0)
d12(5,46)                                           1 	(obj:0)
d12(5,48)                                           1 	(obj:0)
d12(5,50)                                           1 	(obj:0)
d12(5,52)                                           1 	(obj:0)
d12(5,54)                                           1 	(obj:0)
d12(5,56)                                           1 	(obj:0)
d12(5,58)                                           1 	(obj:0)
d12(5,60)                                           1 	(obj:0)
d12(5,62)                                           1 	(obj:0)
d21(2,3)                                            1 	(obj:0)
d21(3,7)                                            1 	(obj:0)
d21(3,8)                                            1 	(obj:0)
d21(3,9)                                            1 	(obj:0)
d21(3,11)                                           1 	(obj:0)
d21(4,15)                                           1 	(obj:0)
d21(4,16)                                           1 	(obj:0)
d21(4,17)                                           1 	(obj:0)
d21(4,19)                                           1 	(obj:0)
d21(4,23)                                           1 	(obj:0)
d21(5,31)                                           1 	(obj:0)
d21(5,32)                                           1 	(obj:0)
d21(5,33)                                           1 	(obj:0)
d21(5,34)                                           1 	(obj:0)
d21(5,35)                                           1 	(obj:0)
d21(5,36)                                           1 	(obj:0)
d21(5,37)                                           1 	(obj:0)
d21(5,39)                                           1 	(obj:0)
d21(5,40)                                           1 	(obj:0)
d21(5,41)                                           1 	(obj:0)
d21(5,43)                                           1 	(obj:0)
d21(5,47)                                           1 	(obj:0)
d21(5,48)                                           1 	(obj:0)
d21(5,49)                                           1 	(obj:0)
d21(5,51)                                           1 	(obj:0)
y2(5,40)                             1385.48851144895 	(obj:0)
y2(5,42)                             1385.48851144895 	(obj:0)
y2(5,44)                             1385.48851144895 	(obj:0)
y2(5,46)                             1385.48851144895 	(obj:0)
y2(5,48)                             1385.48851144895 	(obj:0)
y2(5,50)                             1385.48851144895 	(obj:0)
y2(5,52)                             1385.48851144895 	(obj:0)
y2(5,54)                             1385.48851144895 	(obj:0)
y2(5,56)                             1385.48851144895 	(obj:0)
y2(5,58)                             1385.48851144895 	(obj:0)
y2(5,60)                             1385.48851144895 	(obj:0)
y2(5,62)                             1385.48851144895 	(obj:0)
STE(1,1)                             4137.75010111115 	(obj:0)
STE(0,0)                                         6300 	(obj:0)
STE(1,2)                                         5796 	(obj:0)
STE(2,3)                             1113.75010111115 	(obj:0)
STE(2,4)                             2771.99999999997 	(obj:0)
STE(2,5)                                         2772 	(obj:0)
STE(2,6)                             4430.24989888882 	(obj:0)
STE(3,7)                            -1048.49979777766 	(obj:0)
STE(3,8)                             609.750101111155 	(obj:0)
STE(3,9)                             609.750101111155 	(obj:0)
STE(3,10)                            2267.99999999997 	(obj:0)
STE(3,11)                            609.750101111183 	(obj:0)
STE(3,12)                                        2268 	(obj:0)
STE(3,13)                                        2268 	(obj:0)
STE(3,14)                            3926.24989888882 	(obj:0)
STE(4,15)                           -1552.49979777766 	(obj:0)
STE(4,16)                           -236.285711901157 	(obj:0)
STE(4,17)                            105.750101111155 	(obj:0)
STE(4,18)                            1421.96418698766 	(obj:0)
STE(4,19)                            105.750101111155 	(obj:0)
STE(4,20)                            1421.96418698766 	(obj:0)
STE(4,21)                            1763.99999999997 	(obj:0)
STE(4,22)                            3080.21408587648 	(obj:0)
STE(4,23)                            105.750101111183 	(obj:0)
STE(4,24)                            1421.96418698769 	(obj:0)
STE(4,25)                                        1764 	(obj:0)
STE(4,26)                            3080.21408587651 	(obj:0)
STE(4,27)                                        1764 	(obj:0)
STE(4,28)                            3080.21408587651 	(obj:0)
STE(4,29)                            3422.24989888882 	(obj:0)
STE(4,30)                            4738.46398476532 	(obj:0)
STE(5,31)                           -2056.49979777766 	(obj:0)
STE(5,32)                           -740.285711901157 	(obj:0)
STE(5,33)                           -740.285711901157 	(obj:0)
STE(5,34)                            575.928373975349 	(obj:0)
STE(5,35)                           -398.249898888845 	(obj:0)
STE(5,36)                             917.96418698766 	(obj:0)
STE(5,37)                             917.96418698766 	(obj:0)
STE(5,38)                            2234.17827286417 	(obj:0)
STE(5,39)                           -398.249898888845 	(obj:0)
STE(5,40)                             917.96418698766 	(obj:0)
STE(5,41)                             917.96418698766 	(obj:0)
STE(5,42)                            2234.17827286417 	(obj:0)
STE(5,43)                            1259.99999999997 	(obj:0)
STE(5,44)                            2576.21408587648 	(obj:0)
STE(5,45)                            2576.21408587648 	(obj:0)
STE(5,46)                            3892.42817175298 	(obj:0)
STE(5,47)                           -398.249898888817 	(obj:0)
STE(5,48)                            917.964186987688 	(obj:0)
STE(5,49)                            917.964186987689 	(obj:0)
STE(5,50)                            2234.17827286419 	(obj:0)
STE(5,51)                                        1260 	(obj:0)
STE(5,52)                            2576.21408587651 	(obj:0)
STE(5,53)                            2576.21408587651 	(obj:0)
STE(5,54)                            3892.42817175301 	(obj:0)
STE(5,55)                                        1260 	(obj:0)
STE(5,56)                            2576.21408587651 	(obj:0)
STE(5,57)                            2576.21408587651 	(obj:0)
STE(5,58)                            3892.42817175301 	(obj:0)
STE(5,59)                            2918.24989888882 	(obj:0)
STE(5,60)                            4234.46398476532 	(obj:0)
STE(5,61)                            4234.46398476532 	(obj:0)
STE(5,62)                            5550.67807064183 	(obj:0)
AVE(1)                                   3216.9117036 	(obj:0)
AVE(2)                                   3366.1541945 	(obj:0)
WB(3)                                    3515.3966854 	(obj:0)
AVE(3)                                   3515.3966854 	(obj:0)
WB(4)                                3515.39406545826 	(obj:0)
AVE(4)                               3515.39406545826 	(obj:0)
WB(5)                                3167.15385943327 	(obj:0)
AVE(5)                               3167.15385943327 	(obj:0)
WG(1)                                    3216.9117036 	(obj:10)
WG(2)                                    3366.1541945 	(obj:10)
BG(1)                                979.380795379592 	(obj:10)
BG(2)                                1621.54145856122 	(obj:10)
BG(3)                                4196.29249897957 	(obj:10)
BG(4)                                2673.40993877551 	(obj:10)
BG(5)                                2673.40993877551 	(obj:10)
y1(1,1)                              1492.42490899996 	(obj:0)
y1(2,3)                                          2268 	(obj:0)
y1(2,4)                              775.575091000064 	(obj:0)
y1(2,5)                                          2268 	(obj:0)
y1(2,6)                              775.575091000064 	(obj:0)
y1(3,7)                              1492.42490899994 	(obj:0)
y1(3,9)                              1492.42490899994 	(obj:0)
y1(3,11)                             1492.42490899994 	(obj:0)
y1(3,13)                             1492.42490899994 	(obj:0)
y2(4,16)                             1385.48851144895 	(obj:0)
y2(4,18)                             1385.48851144895 	(obj:0)
y2(4,20)                             1385.48851144895 	(obj:0)
y2(4,22)                             1385.48851144895 	(obj:0)
y2(4,24)                             1385.48851144895 	(obj:0)
y2(4,26)                             1385.48851144895 	(obj:0)
y2(4,28)                             1385.48851144895 	(obj:0)
y2(4,30)                             1385.48851144895 	(obj:0)
y2(5,32)                             1385.48851144895 	(obj:0)
y2(5,34)                             1385.48851144895 	(obj:0)
y2(5,36)                             1385.48851144895 	(obj:0)
y2(5,38)                             1385.48851144895 	(obj:0)
